words_hard_train/1245.qaiger
aag 74 18 0 1 56
2
4
8
12
16
20
24
28
40
48
60
66
70
80
108
126
136
140
149
6 3 5
10 6 9
14 10 13
18 14 17
22 18 21
26 22 25
30 26 29
32 27 28
34 31 33
36 15 16
38 37 19
42 38 40
44 19 20
46 45 23
50 46 48
52 43 51
54 39 41
56 11 12
58 57 15
62 59 61
64 55 63
68 67 2
72 70 9
74 68 73
76 71 8
78 75 77
82 80 5
84 79 83
86 81 4
88 85 87
90 88 11
92 58 60
94 91 93
96 64 95
98 52 97
100 47 49
102 99 101
104 23 24
106 105 27
110 107 109
112 106 108
114 111 113
116 102 114
118 117 113
120 34 118
122 35 119
124 121 123
128 124 126
130 103 115
132 131 24
134 132 117
138 135 136
142 138 141
144 129 143
146 139 140
148 145 147
i0 2 y1[0]
i1 2 y1[2]
i2 2 y1[1]
i3 2 y1[3]
i4 2 y1[4]
i5 2 y1[5]
i6 2 y1[6]
i7 1 x2[7]
i8 1 x2[4]
i9 1 x2[5]
i10 1 x2[3]
i11 1 x2[0]
i12 1 x2[1]
i13 1 x2[2]
i14 1 x2[6]
i15 2 y1[7]
i16 2 y2[0]
i17 2 y2[1]
o0 bv[0]
c
simplified
  >=
    and
      subtract
        1 x2
        2 y1
      2 y1
    << 6
      2 y2
