words_hard_train/1245.qaiger.qdimacs
p cnf 74 169
a 33 35 40 14 20 54 24 30 0
e 1 2 3 4 5 6 7 8 9 10 11 12 13 15 16 17 18 19 21 22 23 25 26 27 28 29 31 32 34 36 37 38 39 41 42 43 44 45 46 47 48 49 50 51 52 53 55 56 57 58 59 60 61 62 63 64 65 66 67 68 69 70 71 72 73 74 0
1 2 3 0
-1 -3 0
-2 -3 0
-3 4 5 0
3 -5 0
-4 -5 0
-5 6 7 0
5 -7 0
-6 -7 0
-7 8 9 0
7 -9 0
-8 -9 0
-9 10 11 0
9 -11 0
-10 -11 0
-11 12 13 0
11 -13 0
-12 -13 0
-13 14 15 0
13 -15 0
-14 -15 0
13 -14 16 0
-13 -16 0
14 -16 0
15 16 17 0
-15 -17 0
-16 -17 0
7 -8 18 0
-7 -18 0
8 -18 0
18 9 19 0
-18 -19 0
-9 -19 0
-19 -20 21 0
19 -21 0
20 -21 0
9 -10 22 0
-9 -22 0
10 -22 0
22 11 23 0
-22 -23 0
-11 -23 0
-23 -24 25 0
23 -25 0
24 -25 0
21 25 26 0
-21 -26 0
-25 -26 0
19 20 27 0
-19 -27 0
-20 -27 0
5 -6 28 0
-5 -28 0
6 -28 0
28 7 29 0
-28 -29 0
-7 -29 0
29 30 31 0
-29 -31 0
-30 -31 0
27 31 32 0
-27 -32 0
-31 -32 0
33 -1 34 0
-33 -34 0
1 -34 0
-35 4 36 0
35 -36 0
-4 -36 0
-34 36 37 0
34 -37 0
-36 -37 0
35 -4 38 0
-35 -38 0
4 -38 0
37 38 39 0
-37 -39 0
-38 -39 0
-40 2 41 0
40 -41 0
-2 -41 0
39 41 42 0
-39 -42 0
-41 -42 0
40 -2 43 0
-40 -43 0
2 -43 0
42 43 44 0
-42 -44 0
-43 -44 0
-44 5 45 0
44 -45 0
-5 -45 0
-29 -30 46 0
29 -46 0
30 -46 0
45 46 47 0
-45 -47 0
-46 -47 0
-32 47 48 0
32 -48 0
-47 -48 0
-26 48 49 0
26 -49 0
-48 -49 0
23 24 50 0
-23 -50 0
-24 -50 0
49 50 51 0
-49 -51 0
-50 -51 0
11 -12 52 0
-11 -52 0
12 -52 0
52 13 53 0
-52 -53 0
-13 -53 0
53 54 55 0
-53 -55 0
-54 -55 0
-53 -54 56 0
53 -56 0
54 -56 0
55 56 57 0
-55 -57 0
-56 -57 0
-51 -57 58 0
51 -58 0
57 -58 0
58 56 59 0
-58 -59 0
-56 -59 0
-17 -59 60 0
17 -60 0
59 -60 0
17 59 61 0
-17 -61 0
-59 -61 0
60 61 62 0
-60 -62 0
-61 -62 0
-62 -63 64 0
62 -64 0
63 -64 0
51 57 65 0
-51 -65 0
-57 -65 0
65 -12 66 0
-65 -66 0
12 -66 0
-66 58 67 0
66 -67 0
-58 -67 0
67 -68 69 0
-67 -69 0
68 -69 0
-69 70 71 0
69 -71 0
-70 -71 0
64 71 72 0
-64 -72 0
-71 -72 0
69 -70 73 0
-69 -73 0
70 -73 0
72 73 74 0
-72 -74 0
-73 -74 0
-74 0
